n = 33;
lu = [|373, 1077
      |-976, -150
      |-967, 504
      |-825, 404
      |165, 648
      |-702, 308
      |-455, 1006
      |-694, 34
      |-1083, 332
      |-455, 1056
      |-839, -736
      |-44, 423
      |-845, 495
      |-406, 180
      |106, 474
      |-218, 196
      |-246, 766
      |-552, -355
      |516, 647
      |-122, -72
      |-783, -631
      |61, 731
      |-610, 610
      |-279, 69
      |-374, 571
      |311, 758
      |-720, 1042
      |631, 854
      |396, 802
      |-553, 729
      |-515, 38
      |-447, -132
      |124, 185|];
